*ROWS:         13
*COLUMNS:      14
*INTEGER:      9
*NONZERO:      34
*
*
NAME          test/instances/flugpl.mps
ROWS
 N  OBJ
 G  STD1
 G  STD2
 L  UEB2
 E  ANZ3
 G  STD3
 L  UEB3
 E  ANZ4
 G  STD4
 L  UEB4
 E  ANZ5
 G  STD5
 L  UEB5
 E  ANZ6
COLUMNS
    UE1       OBJ       30.0000000000000
    UE1       STD1      1.00000000000000
    UE2       OBJ       30.0000000000000
    UE2       STD2      1.00000000000000
    UE2       UEB2      1.00000000000000
    UE3       OBJ       30.0000000000000
    UE3       STD3      1.00000000000000
    UE3       UEB3      1.00000000000000
    UE4       OBJ       30.0000000000000
    UE4       STD4      1.00000000000000
    UE4       UEB4      1.00000000000000
    UE5       OBJ       30.0000000000000
    UE5       STD5      1.00000000000000
    UE5       UEB5      1.00000000000000
    MARK0000  'MARKER'                 'INTORG'
    STM2      OBJ       4200.00000000000
    STM2      STD1      -100.000000000000
    STM2      STD2      150.000000000000
    STM2      UEB2      -20.0000000000000
    STM2      ANZ3      0.9
    ANM2      OBJ       1500.00000000000
    ANM2      STD2      -100.000000000000
    ANM2      ANZ3      1.00000000000000
    STM3      OBJ       2700.00000000000
    STM3      ANZ3      -1.00000000000000
    STM3      STD3      150.000000000000
    STM3      UEB3      -20.0000000000000
    STM3      ANZ4      0.9
    ANM3      OBJ       1500.00000000000
    ANM3      STD3      -100.000000000000
    ANM3      ANZ4      1.00000000000000
    STM4      OBJ       2700.00000000000
    STM4      ANZ4      -1.00000000000000
    STM4      STD4      150.000000000000
    STM4      UEB4      -20.0000000000000
    STM4      ANZ5      0.9
    ANM4      OBJ       1500.00000000000
    ANM4      STD4      -100.000000000000
    ANM4      ANZ5      1.00000000000000
    STM5      OBJ       2700.00000000000
    STM5      ANZ5      -1.00000000000000
    STM5      STD5      150.000000000000
    STM5      UEB5      -20.0000000000000
    STM5      ANZ6      0.9
    ANM5      OBJ       1500.00000000000
    ANM5      STD5      -100.000000000000
    ANM5      ANZ6      1.00000000000000
    STM6      OBJ       -1800.00000000000
    STM6      ANZ6      -1.00000000000000
    MARK0000  'MARKER'                 'INTEND'
RHS
    B         OBJ       -441000.000000000
    B         STD1      -6400.00000000000
    B         STD2      9000.00000000000
    B         STD3      8000.00000000000
    B         STD4      10000.0000000000
    B         STD5      9000.00000000000
BOUNDS
 UP BND       UE1       800.000000000000
 LO BND       STM2      57.0000000000000
 UP BND       STM2      72.0000000000000
 UP BND       ANM2      18.0000000000000
 UP BND       UE2       1440.00000000000
 LO BND       STM3      57.0000000000000
 UP BND       STM3      75.0000000000000
 UP BND       ANM3      18.0000000000000
 UP BND       UE3       1250.00000000000
 LO BND       STM4      57.0000000000000
 UP BND       STM4      75.0000000000000
 UP BND       ANM4      18.0000000000000
 UP BND       UE4       1500.00000000000
 LO BND       STM5      59.0000000000000
 UP BND       STM5      75.0000000000000
 LO BND       ANM5      4.00000000000000
 UP BND       ANM5      18.0000000000000
 UP BND       UE5       1500.00000000000
 LO BND       STM6      71.0000000000000
 UP BND       STM6      75.0000000000000
ENDATA
